NAME : CON8-6.6789171.tour
COMMENT : Cost = 0_6789171
COMMENT : Found by LKH [Keld Helsgaun] Sat Sep  9 21:20:21 2017
TYPE : TOUR
DIMENSION : 59
TOUR_SECTION
1
30
19
12
56
24
3
31
26
58
32
28
57
48
20
35
10
6
25
55
17
16
41
47
36
29
52
15
34
2
23
33
46
7
54
43
5
13
42
50
49
59
9
39
40
44
4
11
14
27
53
45
37
8
21
22
51
38
18
-1
EOF
